decision_x1=[0,4];
decision_x2=[0,4];
decision_x3=[0,4];
decision_x4=[0,4];
decision_x5=[0,4];
decision_x6=[0,4];
decision_x7=[0,4];
decision_x8=[0,4];
decision_x9=[0,4];
decision_x10=[0,4];
decision_x11=[0,4];
decision_x12=[0,4];
decision_x13=[0,4];
decision_x14=[0,4];
decision_x15=[0,4];
random_y1=[0,4];
random_y2=[0,4];
random_y3=[0,4];
constraint_x2_x1=[
0,1,7.6|
0,2,1.9|
0,3,8.9|
0,4,7.8|
1,0,8.4|
1,2,8.2|
1,3,8.5|
1,4,2.1|
2,0,4.1|
2,1,5.1|
2,3,2.7|
2,4,9.4|
3,0,2.7|
3,1,2.7|
3,2,3.6|
3,4,0.72|
4,0,8.3|
4,1,6.4|
4,2,0.82|
4,3,7.4|
];
constraint_x3_x1=[
0,1,5.4|
0,2,4.2|
0,3,9.4|
0,4,0.8|
1,0,6.3|
1,2,7.3|
1,3,7.1|
1,4,2.9|
2,0,4|
2,1,5.3|
2,3,5.4|
2,4,4.3|
3,0,1|
3,1,0.04|
3,2,1.4|
3,4,6.3|
4,0,10|
4,1,9|
4,2,0.4|
4,3,0.94|
];
constraint_x4_x1=[
0,1,0.34|
0,2,2.6|
0,3,3.9|
0,4,5.3|
1,0,2.9|
1,2,8.3|
1,3,4.1|
1,4,0.84|
2,0,4.2|
2,1,0.57|
2,3,8.7|
2,4,5.5|
3,0,9.3|
3,1,8.2|
3,2,2.4|
3,4,8.9|
4,0,2|
4,1,0.36|
4,2,9|
4,3,5.5|
];
constraint_x4_x2=[
0,1,2.3|
0,2,9|
0,3,1.1|
0,4,1.1|
1,0,3.5|
1,2,6.1|
1,3,7.4|
1,4,1.8|
2,0,1.5|
2,1,2.2|
2,3,6.6|
2,4,4.2|
3,0,4.8|
3,1,9.7|
3,2,7.8|
3,4,9.6|
4,0,7.6|
4,1,3.8|
4,2,5.6|
4,3,0.54|
];
constraint_x4_x3=[
0,1,5.9|
0,2,5.9|
0,3,3|
0,4,2|
1,0,8.4|
1,2,0.85|
1,3,8.3|
1,4,8.6|
2,0,7.6|
2,1,5.7|
2,3,0.44|
2,4,6|
3,0,4|
3,1,0.23|
3,2,9.8|
3,4,6.8|
4,0,4.2|
4,1,5.7|
4,2,3.8|
4,3,1.6|
];
constraint_x5_x3=[
0,1,3.1|
0,2,0.31|
0,3,1.3|
0,4,6.4|
1,0,9.8|
1,2,2.4|
1,3,5.8|
1,4,8.1|
2,0,3.5|
2,1,7.9|
2,3,1|
2,4,9.7|
3,0,1.2|
3,1,9.5|
3,2,8.7|
3,4,4.6|
4,0,6.6|
4,1,3.7|
4,2,9.6|
4,3,1.9|
];
constraint_x7_x1=[
0,1,2.9|
0,2,5.4|
0,3,0.04|
0,4,7.6|
1,0,1.7|
1,2,6.9|
1,3,5.7|
1,4,9.1|
2,0,1.4|
2,1,2.3|
2,3,7.4|
2,4,2.3|
3,0,1.6|
3,1,6|
3,2,6.7|
3,4,3|
4,0,9|
4,1,6.3|
4,2,8.6|
4,3,8.9|
];
constraint_x7_x2=[
0,1,9.3|
0,2,4.9|
0,3,3.4|
0,4,7.6|
1,0,7.1|
1,2,6|
1,3,1.1|
1,4,8.6|
2,0,8.1|
2,1,6.5|
2,3,1.8|
2,4,2.2|
3,0,1.4|
3,1,5.4|
3,2,2.8|
3,4,5.1|
4,0,6.9|
4,1,1.8|
4,2,2.3|
4,3,8.1|
];
constraint_x7_x4=[
0,1,9.3|
0,2,6.2|
0,3,5.2|
0,4,0.11|
1,0,3.5|
1,2,2|
1,3,0.67|
1,4,6.8|
2,0,3.8|
2,1,0.084|
2,3,3.8|
2,4,4.8|
3,0,7.5|
3,1,9.2|
3,2,3.5|
3,4,2|
4,0,3.2|
4,1,4.2|
4,2,1.9|
4,3,5.5|
];
constraint_x7_x5=[
0,1,4.9|
0,2,6.2|
0,3,8.9|
0,4,8.4|
1,0,2.5|
1,2,1.2|
1,3,6.4|
1,4,3.3|
2,0,3.3|
2,1,1.9|
2,3,8|
2,4,0.67|
3,0,8.9|
3,1,0.93|
3,2,7.1|
3,4,7.8|
4,0,7.2|
4,1,3.9|
4,2,4.6|
4,3,9.4|
];
constraint_x8_x1=[
0,1,3.6|
0,2,2.9|
0,3,8.1|
0,4,7.3|
1,0,6.6|
1,2,2.7|
1,3,8.7|
1,4,0.37|
2,0,2.4|
2,1,2.9|
2,3,4.2|
2,4,8.7|
3,0,8.4|
3,1,1.3|
3,2,8.2|
3,4,8.4|
4,0,5.3|
4,1,3.1|
4,2,8.9|
4,3,8.3|
];
constraint_x8_x2=[
0,1,0.21|
0,2,6.6|
0,3,6.2|
0,4,2.1|
1,0,9.1|
1,2,7.7|
1,3,4.3|
1,4,3.5|
2,0,6.5|
2,1,7.1|
2,3,3.6|
2,4,0.4|
3,0,5.2|
3,1,7.3|
3,2,2.9|
3,4,5.9|
4,0,2.8|
4,1,9.5|
4,2,0.76|
4,3,8.5|
];
constraint_x8_x3=[
0,1,6.5|
0,2,2.6|
0,3,6.9|
0,4,7.8|
1,0,5.9|
1,2,8.7|
1,3,1.5|
1,4,4|
2,0,6.9|
2,1,3.6|
2,3,10|
2,4,4.6|
3,0,9.9|
3,1,8.2|
3,2,0.39|
3,4,3.2|
4,0,4.5|
4,1,4.9|
4,2,0.19|
4,3,5.9|
];
constraint_x8_x5=[
0,1,6.8|
0,2,0.61|
0,3,5.8|
0,4,7.5|
1,0,8.8|
1,2,0.51|
1,3,5.2|
1,4,4.4|
2,0,5|
2,1,2.3|
2,3,9.6|
2,4,6|
3,0,4|
3,1,5.8|
3,2,7.9|
3,4,8.9|
4,0,5.6|
4,1,7.4|
4,2,6.2|
4,3,4.2|
];
constraint_x9_x2=[
0,1,0.68|
0,2,4.3|
0,3,3.1|
0,4,0.77|
1,0,1.3|
1,2,4.1|
1,3,1|
1,4,6.4|
2,0,1.7|
2,1,4.5|
2,3,7.3|
2,4,7.8|
3,0,9|
3,1,0.0034|
3,2,3|
3,4,2.4|
4,0,5.5|
4,1,2|
4,2,3.9|
4,3,5.3|
];
constraint_x9_x4=[
0,1,5.3|
0,2,9.8|
0,3,7.7|
0,4,0.53|
1,0,6.8|
1,2,2.6|
1,3,9.6|
1,4,3.5|
2,0,8.7|
2,1,9.6|
2,3,8.7|
2,4,5|
3,0,6|
3,1,8.1|
3,2,8.2|
3,4,7.2|
4,0,3.6|
4,1,9.3|
4,2,9.4|
4,3,1.5|
];
constraint_x9_x7=[
0,1,0.53|
0,2,3.7|
0,3,8.2|
0,4,6.4|
1,0,3.2|
1,2,2.6|
1,3,0.2|
1,4,7|
2,0,3.5|
2,1,2.5|
2,3,6.4|
2,4,0.16|
3,0,9.8|
3,1,3.4|
3,2,1.3|
3,4,5|
4,0,1.3|
4,1,4.5|
4,2,6.5|
4,3,0.5|
];
constraint_x10_x1=[
0,1,3.5|
0,2,3.1|
0,3,8.6|
0,4,2|
1,0,5.2|
1,2,7.1|
1,3,3.7|
1,4,0.55|
2,0,0.47|
2,1,7.9|
2,3,4.6|
2,4,4.2|
3,0,3.3|
3,1,8.8|
3,2,6.7|
3,4,6.8|
4,0,6.1|
4,1,7.5|
4,2,5.1|
4,3,3|
];
constraint_x10_x3=[
0,1,5.5|
0,2,5|
0,3,8.3|
0,4,4.1|
1,0,9.4|
1,2,6.1|
1,3,9.2|
1,4,1.1|
2,0,7.7|
2,1,3.3|
2,3,7.1|
2,4,1.5|
3,0,2.8|
3,1,3.7|
3,2,2.3|
3,4,1.1|
4,0,4.8|
4,1,7|
4,2,0.87|
4,3,0.1|
];
constraint_x10_x5=[
0,1,9.4|
0,2,8.6|
0,3,9|
0,4,0.81|
1,0,5.2|
1,2,9|
1,3,4.5|
1,4,2.6|
2,0,9.7|
2,1,0.96|
2,3,5.9|
2,4,7.8|
3,0,7.3|
3,1,2.8|
3,2,4|
3,4,4.4|
4,0,2.6|
4,1,9.9|
4,2,2.4|
4,3,9.9|
];
constraint_x10_x6=[
0,1,8.5|
0,2,6.7|
0,3,6.7|
0,4,0.83|
1,0,3.6|
1,2,9.7|
1,3,8.8|
1,4,3.5|
2,0,0.38|
2,1,10|
2,3,2.6|
2,4,8.4|
3,0,8.5|
3,1,7.1|
3,2,6.7|
3,4,6.7|
4,0,3.2|
4,1,4.2|
4,2,0.13|
4,3,4.8|
];
constraint_x10_x9=[
0,1,9.3|
0,2,8.1|
0,3,3.9|
0,4,9.9|
1,0,3.7|
1,2,0.72|
1,3,9.6|
1,4,8.3|
2,0,4.7|
2,1,4.5|
2,3,7.5|
2,4,4.4|
3,0,7|
3,1,5.3|
3,2,8.7|
3,4,8.1|
4,0,0.36|
4,1,1.1|
4,2,2.9|
4,3,7.4|
];
constraint_x11_x4=[
0,1,6|
0,2,6.9|
0,3,9.9|
0,4,4.4|
1,0,10|
1,2,7.2|
1,3,2.9|
1,4,2.2|
2,0,7.1|
2,1,9.8|
2,3,0.047|
2,4,9.9|
3,0,2.5|
3,1,1.5|
3,2,5.7|
3,4,3.6|
4,0,6.1|
4,1,6.1|
4,2,5.4|
4,3,1.7|
];
constraint_x11_x5=[
0,1,9.5|
0,2,6.4|
0,3,9.2|
0,4,8.7|
1,0,3.2|
1,2,2.2|
1,3,7.2|
1,4,3|
2,0,3.7|
2,1,10|
2,3,2.8|
2,4,1|
3,0,2.8|
3,1,0.26|
3,2,1.2|
3,4,5.4|
4,0,5.9|
4,1,8|
4,2,5.8|
4,3,8|
];
constraint_x11_x6=[
0,1,4.9|
0,2,0.96|
0,3,3.2|
0,4,1.8|
1,0,5.7|
1,2,8.6|
1,3,6.8|
1,4,5|
2,0,7.2|
2,1,7|
2,3,3.9|
2,4,3.9|
3,0,8.5|
3,1,4.9|
3,2,1.7|
3,4,8.5|
4,0,3.8|
4,1,1.1|
4,2,7.2|
4,3,0.28|
];
constraint_x11_x7=[
0,1,7|
0,2,5.1|
0,3,9.3|
0,4,4.5|
1,0,7.4|
1,2,7.3|
1,3,3.9|
1,4,8.9|
2,0,2.3|
2,1,7.8|
2,3,7|
2,4,9.3|
3,0,7|
3,1,3.5|
3,2,3.5|
3,4,9|
4,0,0.6|
4,1,5.3|
4,2,5.6|
4,3,1.6|
];
constraint_x11_x9=[
0,1,3.4|
0,2,2.8|
0,3,3.9|
0,4,10|
1,0,4.8|
1,2,7.7|
1,3,3.6|
1,4,0.68|
2,0,2.2|
2,1,4.7|
2,3,7.7|
2,4,3.4|
3,0,0.1|
3,1,8.2|
3,2,2.6|
3,4,9.2|
4,0,0.29|
4,1,8.3|
4,2,2.8|
4,3,2.5|
];
constraint_x12_x2=[
0,1,8|
0,2,6.5|
0,3,1.6|
0,4,8|
1,0,1.5|
1,2,8.1|
1,3,6.5|
1,4,4.2|
2,0,6.3|
2,1,9.1|
2,3,6.8|
2,4,1.5|
3,0,6.8|
3,1,4.3|
3,2,2.7|
3,4,9.2|
4,0,0.6|
4,1,0.091|
4,2,3.9|
4,3,0.79|
];
constraint_x12_x3=[
0,1,9.5|
0,2,8.5|
0,3,7.7|
0,4,1.9|
1,0,8.8|
1,2,6.6|
1,3,0.22|
1,4,1.4|
2,0,5.9|
2,1,9.5|
2,3,0.72|
2,4,4|
3,0,5.3|
3,1,8.1|
3,2,4.6|
3,4,6.7|
4,0,1.7|
4,1,0.52|
4,2,8.5|
4,3,3.5|
];
constraint_x12_x4=[
0,1,7.3|
0,2,4.7|
0,3,4.2|
0,4,5.2|
1,0,2.8|
1,2,3.1|
1,3,7.8|
1,4,5|
2,0,5|
2,1,1.5|
2,3,1.9|
2,4,1.6|
3,0,1.6|
3,1,0.12|
3,2,5.4|
3,4,4.7|
4,0,3.2|
4,1,6.9|
4,2,2.6|
4,3,2.2|
];
constraint_x12_x5=[
0,1,7.7|
0,2,3.4|
0,3,6.9|
0,4,9.8|
1,0,9.4|
1,2,9.6|
1,3,1.4|
1,4,2.3|
2,0,0.83|
2,1,9.9|
2,3,6|
2,4,1.5|
3,0,6.8|
3,1,0.34|
3,2,8.7|
3,4,5.8|
4,0,6.4|
4,1,4.8|
4,2,5.6|
4,3,8.4|
];
constraint_x12_x9=[
0,1,8.5|
0,2,0.38|
0,3,4.4|
0,4,4.7|
1,0,8.6|
1,2,9|
1,3,1.7|
1,4,6.8|
2,0,4.4|
2,1,8.1|
2,3,7.4|
2,4,8.6|
3,0,4.4|
3,1,8.3|
3,2,0.46|
3,4,8.9|
4,0,4.4|
4,1,6.4|
4,2,4.9|
4,3,0.34|
];
constraint_x12_x10=[
0,1,5|
0,2,6.5|
0,3,9.1|
0,4,7.7|
1,0,3.2|
1,2,7.2|
1,3,5.8|
1,4,4.9|
2,0,8.7|
2,1,1.5|
2,3,9.8|
2,4,3.2|
3,0,4.3|
3,1,2.4|
3,2,0.19|
3,4,2.1|
4,0,9.3|
4,1,7.5|
4,2,5.6|
4,3,5.5|
];
constraint_x12_x11=[
0,1,6.7|
0,2,2.7|
0,3,3.6|
0,4,0.93|
1,0,2|
1,2,3.1|
1,3,2.1|
1,4,5.4|
2,0,8.6|
2,1,5.9|
2,3,7.5|
2,4,0.63|
3,0,4.9|
3,1,4.9|
3,2,4.5|
3,4,7.3|
4,0,4.7|
4,1,5.6|
4,2,1.8|
4,3,7.1|
];
constraint_x13_x1=[
0,1,6.2|
0,2,9.9|
0,3,4.7|
0,4,3.7|
1,0,8.5|
1,2,5.8|
1,3,8.7|
1,4,0.79|
2,0,3|
2,1,4|
2,3,7.4|
2,4,9.9|
3,0,6.2|
3,1,7.6|
3,2,4.6|
3,4,7.1|
4,0,7.9|
4,1,3|
4,2,5.9|
4,3,5.2|
];
constraint_x13_x2=[
0,1,1.3|
0,2,0.45|
0,3,8.1|
0,4,9.3|
1,0,4.3|
1,2,6.5|
1,3,8|
1,4,8|
2,0,0.62|
2,1,6.6|
2,3,8.3|
2,4,1.7|
3,0,5.5|
3,1,9.4|
3,2,6.4|
3,4,7.5|
4,0,0.95|
4,1,4.9|
4,2,8.5|
4,3,3.4|
];
constraint_x13_x3=[
0,1,6.3|
0,2,7.6|
0,3,8.8|
0,4,9.7|
1,0,4.4|
1,2,3.7|
1,3,9.3|
1,4,5.5|
2,0,2.6|
2,1,7.1|
2,3,0.97|
2,4,0.68|
3,0,1.9|
3,1,6.6|
3,2,5.9|
3,4,7.8|
4,0,8.5|
4,1,1.4|
4,2,5.7|
4,3,2.9|
];
constraint_x13_x5=[
0,1,5.8|
0,2,5.4|
0,3,7.6|
0,4,6.7|
1,0,8.4|
1,2,9.4|
1,3,4.8|
1,4,1.8|
2,0,0.02|
2,1,3.5|
2,3,8.1|
2,4,7.5|
3,0,8.8|
3,1,4.4|
3,2,2.7|
3,4,3.8|
4,0,8.8|
4,1,1.9|
4,2,1.7|
4,3,6.1|
];
constraint_x13_x8=[
0,1,8.8|
0,2,3.9|
0,3,1.9|
0,4,9.5|
1,0,7|
1,2,0.66|
1,3,9.6|
1,4,2.4|
2,0,7.5|
2,1,2.7|
2,3,5.5|
2,4,0.44|
3,0,4.9|
3,1,9.2|
3,2,1.4|
3,4,3.5|
4,0,5.1|
4,1,8.1|
4,2,8.1|
4,3,9|
];
constraint_x13_x9=[
0,1,9.7|
0,2,4.3|
0,3,0.36|
0,4,9.9|
1,0,6.1|
1,2,2|
1,3,9.5|
1,4,2.3|
2,0,0.64|
2,1,4.9|
2,3,2.1|
2,4,1.7|
3,0,9.2|
3,1,1.3|
3,2,3.3|
3,4,7.3|
4,0,0.25|
4,1,8.1|
4,2,2.6|
4,3,5.7|
];
constraint_x13_x10=[
0,1,8.6|
0,2,8.2|
0,3,6.2|
0,4,1.8|
1,0,9.1|
1,2,2.1|
1,3,8.2|
1,4,6.7|
2,0,4.1|
2,1,0.79|
2,3,6.3|
2,4,10|
3,0,4|
3,1,0.39|
3,2,2.3|
3,4,1.6|
4,0,6.8|
4,1,4.8|
4,2,1.1|
4,3,8|
];
constraint_x14_x4=[
0,1,7.4|
0,2,1.5|
0,3,1.3|
0,4,0.025|
1,0,6.7|
1,2,0.69|
1,3,4.1|
1,4,9.8|
2,0,4.8|
2,1,4.4|
2,3,8.7|
2,4,0.75|
3,0,0.67|
3,1,7.4|
3,2,8.6|
3,4,0.47|
4,0,3.4|
4,1,9.2|
4,2,6.7|
4,3,5|
];
constraint_x14_x5=[
0,1,6|
0,2,7|
0,3,9.9|
0,4,7.6|
1,0,1.3|
1,2,0.035|
1,3,5.7|
1,4,9.4|
2,0,6.1|
2,1,2.8|
2,3,2|
2,4,9.8|
3,0,9.2|
3,1,0.68|
3,2,8|
3,4,0.33|
4,0,8.6|
4,1,3.1|
4,2,0.84|
4,3,1.7|
];
constraint_x14_x10=[
0,1,7.4|
0,2,0.093|
0,3,4.9|
0,4,6.2|
1,0,1.2|
1,2,0.65|
1,3,4.7|
1,4,7.9|
2,0,7.4|
2,1,2.1|
2,3,6.9|
2,4,5.3|
3,0,6.5|
3,1,2.4|
3,2,9.2|
3,4,8.5|
4,0,5.4|
4,1,4.5|
4,2,7.4|
4,3,5.1|
];
constraint_x14_x11=[
0,1,3|
0,2,1.3|
0,3,4|
0,4,8.1|
1,0,6.5|
1,2,6.7|
1,3,7.1|
1,4,9.6|
2,0,9|
2,1,4.8|
2,3,3.9|
2,4,2.3|
3,0,8.8|
3,1,5.4|
3,2,1.4|
3,4,8.4|
4,0,3.5|
4,1,5.3|
4,2,1.8|
4,3,7|
];
constraint_x14_x12=[
0,1,9.8|
0,2,1.3|
0,3,7.2|
0,4,3.6|
1,0,2.2|
1,2,5.7|
1,3,9.8|
1,4,3.2|
2,0,1.7|
2,1,1.6|
2,3,4.8|
2,4,6.2|
3,0,8.7|
3,1,4|
3,2,4|
3,4,0.33|
4,0,9.4|
4,1,6.1|
4,2,3.7|
4,3,6.5|
];
constraint_x14_x13=[
0,1,4.9|
0,2,7.7|
0,3,5.6|
0,4,2|
1,0,0.78|
1,2,2.6|
1,3,2.3|
1,4,8.1|
2,0,2.3|
2,1,0.34|
2,3,2.3|
2,4,5.5|
3,0,4.7|
3,1,5.2|
3,2,6.8|
3,4,0.49|
4,0,8.5|
4,1,1.7|
4,2,3.6|
4,3,7.1|
];
constraint_x15_x4=[
0,1,7.2|
0,2,2.2|
0,3,3.1|
0,4,3.5|
1,0,3.8|
1,2,6.7|
1,3,9.3|
1,4,8.1|
2,0,2.4|
2,1,1.2|
2,3,4.8|
2,4,7.1|
3,0,0.64|
3,1,7.6|
3,2,4.8|
3,4,4.8|
4,0,4.6|
4,1,8|
4,2,8.9|
4,3,9.1|
];
constraint_x15_x6=[
0,1,8.1|
0,2,7.3|
0,3,2.5|
0,4,8.1|
1,0,5|
1,2,5.4|
1,3,5.7|
1,4,2.6|
2,0,8.8|
2,1,7.4|
2,3,5|
2,4,9|
3,0,2.2|
3,1,4.2|
3,2,7.6|
3,4,1.5|
4,0,2.5|
4,1,3.8|
4,2,7.2|
4,3,6.4|
];
constraint_x15_x7=[
0,1,3.2|
0,2,2.3|
0,3,3.8|
0,4,4.4|
1,0,0.29|
1,2,3.8|
1,3,2.7|
1,4,5.1|
2,0,9|
2,1,9.2|
2,3,2.9|
2,4,1.5|
3,0,5.5|
3,1,4|
3,2,1.1|
3,4,7.5|
4,0,8.6|
4,1,3.3|
4,2,4.7|
4,3,6.9|
];
constraint_x15_x8=[
0,1,7.3|
0,2,1.4|
0,3,4.2|
0,4,4.4|
1,0,6.4|
1,2,1.3|
1,3,1.8|
1,4,3.1|
2,0,1.5|
2,1,0.67|
2,3,9|
2,4,7.4|
3,0,9.5|
3,1,7.8|
3,2,8.6|
3,4,5.2|
4,0,4.8|
4,1,7.7|
4,2,7.5|
4,3,5.7|
];
constraint_x15_x10=[
0,1,1.8|
0,2,1|
0,3,9.9|
0,4,8.2|
1,0,7|
1,2,3|
1,3,8.1|
1,4,5.5|
2,0,0.092|
2,1,2.7|
2,3,2.3|
2,4,7.1|
3,0,7.4|
3,1,3.4|
3,2,9.8|
3,4,7.2|
4,0,8.8|
4,1,4.1|
4,2,6.1|
4,3,8.9|
];
constraint_x15_x11=[
0,1,5.7|
0,2,7.6|
0,3,5.6|
0,4,4.7|
1,0,3.5|
1,2,9.5|
1,3,1.8|
1,4,9.3|
2,0,4|
2,1,2.5|
2,3,0.74|
2,4,3.6|
3,0,2.1|
3,1,9.8|
3,2,1.5|
3,4,9.1|
4,0,1|
4,1,1.1|
4,2,3.6|
4,3,7.5|
];
constraint_x1_y1=[
0,0,0.42|
0,1,8.6|
0,2,3.4|
0,3,9.6|
0,4,7.1|
1,0,8.6|
1,1,4.1|
1,2,9.9|
1,3,0.55|
1,4,1.1|
2,0,2.2|
2,1,2.3|
2,2,6.7|
2,3,5.2|
2,4,5.8|
3,0,5.6|
3,1,8.5|
3,2,1.7|
3,3,2.3|
3,4,8.6|
4,0,0.53|
4,1,5|
4,2,3.6|
4,3,6.1|
4,4,4.8|
];
constraint_x2_y2=[
0,0,3.1|
0,1,4.5|
0,2,6.3|
0,3,4.3|
0,4,4.2|
1,0,6.8|
1,1,0.096|
1,2,2.3|
1,3,1.9|
1,4,5.8|
2,0,2|
2,1,1.1|
2,2,10|
2,3,9|
2,4,7.2|
3,0,6.7|
3,1,5.4|
3,2,6.8|
3,3,2|
3,4,10|
4,0,7.8|
4,1,1.7|
4,2,7.6|
4,3,4.2|
4,4,1.8|
];
constraint_x3_y3=[
0,0,3.3|
0,1,6.6|
0,2,5.9|
0,3,2.8|
0,4,6.4|
1,0,4.6|
1,1,5.8|
1,2,0.15|
1,3,2.7|
1,4,3.1|
2,0,3.6|
2,1,2.7|
2,2,9.9|
2,3,9.7|
2,4,9.4|
3,0,8.7|
3,1,8.3|
3,2,3.8|
3,3,0.045|
3,4,9.6|
4,0,4.6|
4,1,8|
4,2,0.75|
4,3,9.4|
4,4,2.5|
];
initial_distribution_y1=[0.21,0.22,0.14,0.27,0.16];
initial_distribution_y2=[0.21,0.27,0.34,0.15,0.04];
initial_distribution_y3=[0.21,0.27,0.25,0.19,0.093];
transition_y1=[
0.23,0.087,0.41,0.12,0.15|
0.12,0.28,0.17,0.21,0.22|
0.25,0.057,0.18,0.26,0.25|
0.16,0.081,0.28,0.25,0.23|
0.16,0.27,0.19,0.31,0.067|
];
transition_y2=[
0.14,0.17,0.24,0.049,0.4|
0.18,0.31,0.028,0.46,0.024|
0.28,0.19,0.18,0.2,0.15|
0.28,0.2,0.28,0.051,0.19|
0.028,0.094,0.28,0.29,0.31|
];
transition_y3=[
0.069,0.31,0.3,0.023,0.3|
0.3,0.23,0.22,0.18,0.065|
0.37,0.48,0.04,0.054,0.049|
0.18,0.26,0.29,0.24,0.033|
0.061,0.28,0.26,0.096,0.3|
];
